DATASET = "thpack5";
INSTANCE = "001";

WIDTH = 233;
HEIGHT = 220;
LENGTH = 587;

NO_OF_SHAPES = 12;
size = [|
  108,76,30 |
  110,43,25 |
  92,81,55 |
  81,33,28 |
  120,99,73 |
  111,70,48 |
  98,72,46 |
  95,66,31 |
  85,84,30 |
  71,32,25 |
  36,34,25 |
  97,67,62 |
|];

verticality = [|
  0,0,1 |
  0,1,1 |
  1,1,1 |
  0,1,1 |
  1,1,1 |
  0,1,1 |
  0,1,1 |
  0,0,1 |
  0,0,1 |
  0,1,1 |
  1,1,1 |
  1,1,1 |
|];

box_count = [
  17,
  9,
  7,
  3,
  11,
  5,
  11,
  3,
  9,
  7,
  8,
  8,
];
